p cnf 415 304
c p distribution  0.875 0.125
c p distribution  0.875 0.125
c p distribution  0.875 0.125
c p distribution  0.875 0.125
c p distribution  0.875 0.125
c p distribution  0.875 0.125
c p distribution  0.875 0.125
c p distribution  0.875 0.125
c p distribution  0.875 0.125
c p distribution  0.875 0.125
c p distribution  0.875 0.125
c p distribution  0.875 0.125
c p distribution  0.875 0.125
c p distribution  0.875 0.125
c p distribution  0.875 0.125
c p distribution  0.875 0.125
c p distribution  0.875 0.125
c p distribution  0.875 0.125
c p distribution  0.875 0.125
c p distribution  0.875 0.125
c p distribution  0.875 0.125
c p distribution  0.875 0.125
c p distribution  0.875 0.125
c p distribution  0.875 0.125
c p distribution  0.875 0.125
c p distribution  0.875 0.125
c p distribution  0.875 0.125
c p distribution  0.875 0.125
c p distribution  0.875 0.125
c p distribution  0.875 0.125
c p distribution  0.875 0.125
c p distribution  0.875 0.125
c p distribution  0.875 0.125
c p distribution  0.875 0.125
c p distribution  0.875 0.125
c p distribution  0.875 0.125
c p distribution  0.875 0.125
c p distribution  0.875 0.125
c p distribution  0.875 0.125
c p distribution  0.875 0.125
c p distribution  0.875 0.125
c p distribution  0.875 0.125
c p distribution  0.875 0.125
c p distribution  0.875 0.125
c p distribution  0.875 0.125
c p distribution  0.875 0.125
c p distribution  0.875 0.125
c p distribution  0.875 0.125
c p distribution  0.875 0.125
c p distribution  0.875 0.125
c p distribution  0.875 0.125
c p distribution  0.875 0.125
c p distribution  0.875 0.125
c p distribution  0.875 0.125
c p distribution  0.875 0.125
c p distribution  0.875 0.125
c p distribution  0.875 0.125
c p distribution  0.875 0.125
c p distribution  0.875 0.125
c p distribution  0.875 0.125
c p distribution  0.875 0.125
c p distribution  0.875 0.125
c p distribution  0.875 0.125
c p distribution  0.875 0.125
c p distribution  0.875 0.125
c p distribution  0.875 0.125
c p distribution  0.875 0.125
c p distribution  0.875 0.125
c p distribution  0.875 0.125
c p distribution  0.875 0.125
c p distribution  0.875 0.125
c p distribution  0.875 0.125
c p distribution  0.875 0.125
c p distribution  0.875 0.125
c p distribution  0.875 0.125
c p distribution  0.875 0.125
c p distribution  0.875 0.125
c p distribution  0.875 0.125
c p distribution  0.875 0.125
c p distribution  0.875 0.125
c p distribution  0.875 0.125
c p distribution  0.875 0.125
c p distribution  0.875 0.125
c p distribution  0.875 0.125
c p distribution  0.875 0.125
c p distribution  0.875 0.125
c p distribution  0.875 0.125
c p distribution  0.875 0.125
c p distribution  0.875 0.125
c p distribution  0.875 0.125
c p distribution  0.875 0.125
c p distribution  0.875 0.125
c p distribution  0.875 0.125
c p distribution  0.875 0.125
c p distribution  0.875 0.125
c p distribution  0.875 0.125
c p distribution  0.875 0.125
c p distribution  0.875 0.125
c p distribution  0.875 0.125
c p distribution  0.875 0.125
c p distribution  0.875 0.125
c p distribution  0.875 0.125
c p distribution  0.875 0.125
c p distribution  0.875 0.125
c p distribution  0.875 0.125
c p distribution  0.875 0.125
c p distribution  0.875 0.125
c p distribution  0.875 0.125
c p distribution  0.875 0.125
c p distribution  0.875 0.125
c p distribution  0.875 0.125
c p distribution  0.875 0.125
c p distribution  0.875 0.125
c p distribution  0.875 0.125
c p distribution  0.875 0.125
c p distribution  0.875 0.125
c p distribution  0.875 0.125
c p distribution  0.875 0.125
c p distribution  0.875 0.125
c p distribution  0.875 0.125
c p distribution  0.875 0.125
c p distribution  0.875 0.125
c p distribution  0.875 0.125
c p distribution  0.875 0.125
c p distribution  0.875 0.125
c p distribution  0.875 0.125
c p distribution  0.875 0.125
c p distribution  0.875 0.125
c p distribution  0.875 0.125
c p distribution  0.875 0.125
c p distribution  0.875 0.125
c p distribution  0.875 0.125
c p distribution  0.875 0.125
c p distribution  0.875 0.125
c p distribution  0.875 0.125
c p distribution  0.875 0.125
c p distribution  0.875 0.125
c p distribution  0.875 0.125
c p distribution  0.875 0.125
c p distribution  0.875 0.125
c p distribution  0.875 0.125
c p distribution  0.875 0.125
c p distribution  0.875 0.125
c p distribution  0.875 0.125
c p distribution  0.875 0.125
c p distribution  0.875 0.125
c p distribution  0.875 0.125
c p distribution  0.875 0.125
c p distribution  0.875 0.125
c p distribution  0.875 0.125
c p distribution  0.875 0.125
330 0
-354 0
389 -310 -1 0
310 -389 -1 0
406 -413 -3 0
413 -406 -3 0
394 -362 -5 0
362 -394 -5 0
352 -413 -7 0
413 -352 -7 0
364 -318 -9 0
318 -364 -9 0
382 -327 -11 0
327 -382 -11 0
388 -359 -13 0
359 -388 -13 0
323 -402 -15 0
402 -323 -15 0
405 -365 -17 0
365 -405 -17 0
391 -366 -19 0
366 -391 -19 0
387 -392 -21 0
392 -387 -21 0
310 -399 -23 0
399 -310 -23 0
325 -337 -25 0
337 -325 -25 0
341 -381 -27 0
381 -341 -27 0
367 -398 -29 0
398 -367 -29 0
303 -348 -31 0
348 -303 -31 0
391 -403 -33 0
403 -391 -33 0
406 -346 -35 0
346 -406 -35 0
349 -326 -37 0
326 -349 -37 0
396 -340 -39 0
340 -396 -39 0
409 -369 -41 0
369 -409 -41 0
382 -362 -43 0
362 -382 -43 0
343 -379 -45 0
379 -343 -45 0
383 -401 -47 0
401 -383 -47 0
370 -335 -49 0
335 -370 -49 0
315 -382 -51 0
382 -315 -51 0
358 -403 -53 0
403 -358 -53 0
389 -329 -55 0
329 -389 -55 0
342 -348 -57 0
348 -342 -57 0
347 -375 -59 0
375 -347 -59 0
351 -339 -61 0
339 -351 -61 0
386 -346 -63 0
346 -386 -63 0
353 -315 -65 0
315 -353 -65 0
397 -331 -67 0
331 -397 -67 0
347 -401 -69 0
401 -347 -69 0
343 -345 -71 0
345 -343 -71 0
336 -332 -73 0
332 -336 -73 0
314 -346 -75 0
346 -314 -75 0
376 -323 -77 0
323 -376 -77 0
357 -405 -79 0
405 -357 -79 0
414 -358 -81 0
358 -414 -81 0
360 -317 -83 0
317 -360 -83 0
315 -312 -85 0
312 -315 -85 0
324 -410 -87 0
410 -324 -87 0
329 -411 -89 0
411 -329 -89 0
329 -411 -91 0
411 -329 -91 0
309 -330 -93 0
330 -309 -93 0
328 -338 -95 0
338 -328 -95 0
385 -388 -97 0
388 -385 -97 0
311 -380 -99 0
380 -311 -99 0
331 -380 -101 0
380 -331 -101 0
324 -410 -103 0
410 -324 -103 0
387 -396 -105 0
396 -387 -105 0
393 -372 -107 0
372 -393 -107 0
313 -342 -109 0
342 -313 -109 0
304 -340 -111 0
340 -304 -111 0
375 -383 -113 0
383 -375 -113 0
356 -357 -115 0
357 -356 -115 0
329 -411 -117 0
411 -329 -117 0
382 -344 -119 0
344 -382 -119 0
398 -303 -121 0
303 -398 -121 0
343 -379 -123 0
379 -343 -123 0
311 -415 -125 0
415 -311 -125 0
320 -403 -127 0
403 -320 -127 0
389 -413 -129 0
413 -389 -129 0
352 -314 -131 0
314 -352 -131 0
303 -348 -133 0
348 -303 -133 0
370 -334 -135 0
334 -370 -135 0
343 -379 -137 0
379 -343 -137 0
329 -411 -139 0
411 -329 -139 0
371 -369 -141 0
369 -371 -141 0
368 -342 -143 0
342 -368 -143 0
381 -366 -145 0
366 -381 -145 0
393 -372 -147 0
372 -393 -147 0
325 -321 -149 0
321 -325 -149 0
336 -413 -151 0
413 -336 -151 0
343 -321 -153 0
321 -343 -153 0
331 -401 -155 0
401 -331 -155 0
319 -330 -157 0
330 -319 -157 0
409 -368 -159 0
368 -409 -159 0
351 -356 -161 0
356 -351 -161 0
374 -399 -163 0
399 -374 -163 0
394 -331 -165 0
331 -394 -165 0
354 -386 -167 0
386 -354 -167 0
323 -414 -169 0
414 -323 -169 0
389 -397 -171 0
397 -389 -171 0
359 -324 -173 0
324 -359 -173 0
325 -337 -175 0
337 -325 -175 0
320 -402 -177 0
402 -320 -177 0
336 -350 -179 0
350 -336 -179 0
312 -335 -181 0
335 -312 -181 0
385 -334 -183 0
334 -385 -183 0
373 -363 -185 0
363 -373 -185 0
333 -326 -187 0
326 -333 -187 0
311 -307 -189 0
307 -311 -189 0
341 -404 -191 0
404 -341 -191 0
395 -349 -193 0
349 -395 -193 0
382 -344 -195 0
344 -382 -195 0
333 -412 -197 0
412 -333 -197 0
361 -407 -199 0
407 -361 -199 0
322 -306 -201 0
306 -322 -201 0
336 -413 -203 0
413 -336 -203 0
323 -400 -205 0
400 -323 -205 0
314 -308 -207 0
308 -314 -207 0
327 -360 -209 0
360 -327 -209 0
317 -381 -211 0
381 -317 -211 0
354 -308 -213 0
308 -354 -213 0
383 -382 -215 0
382 -383 -215 0
390 -367 -217 0
367 -390 -217 0
394 -313 -219 0
313 -394 -219 0
352 -413 -221 0
413 -352 -221 0
369 -371 -223 0
371 -369 -223 0
377 -381 -225 0
381 -377 -225 0
329 -411 -227 0
411 -329 -227 0
331 -340 -229 0
340 -331 -229 0
312 -334 -231 0
334 -312 -231 0
337 -306 -233 0
306 -337 -233 0
316 -357 -235 0
357 -316 -235 0
358 -320 -237 0
320 -358 -237 0
323 -404 -239 0
404 -323 -239 0
414 -323 -241 0
323 -414 -241 0
392 -387 -243 0
387 -392 -243 0
366 -404 -245 0
404 -366 -245 0
350 -345 -247 0
345 -350 -247 0
329 -355 -249 0
355 -329 -249 0
402 -372 -251 0
372 -402 -251 0
354 -355 -253 0
355 -354 -253 0
408 -338 -255 0
338 -408 -255 0
343 -321 -257 0
321 -343 -257 0
344 -335 -259 0
335 -344 -259 0
319 -378 -261 0
378 -319 -261 0
325 -321 -263 0
321 -325 -263 0
389 -413 -265 0
413 -389 -265 0
398 -374 -267 0
374 -398 -267 0
340 -306 -269 0
306 -340 -269 0
340 -392 -271 0
392 -340 -271 0
388 -370 -273 0
370 -388 -273 0
382 -415 -275 0
415 -382 -275 0
357 -407 -277 0
407 -357 -277 0
380 -340 -279 0
340 -380 -279 0
325 -412 -281 0
412 -325 -281 0
396 -340 -283 0
340 -396 -283 0
354 -328 -285 0
328 -354 -285 0
377 -359 -287 0
359 -377 -287 0
389 -329 -289 0
329 -389 -289 0
389 -397 -291 0
397 -389 -291 0
327 -307 -293 0
307 -327 -293 0
305 -409 -295 0
409 -305 -295 0
408 -407 -297 0
407 -408 -297 0
329 -411 -299 0
411 -329 -299 0
309 -410 -301 0
410 -309 -301 0

